HUN,8,6,823
2,11,4,2,1,13,0,23,5,6,3,29
4,27,0,29,5,15,1,19,2,13,3,3
5,19,2,8,0,15,1,9,3,30,4,22
5,12,4,29,1,19,3,15,0,26,2,26
1,6,4,3,2,12,0,2,3,22,5,4
5,14,4,1,3,17,0,3,1,20,2,14
0,30,2,29,1,18,5,2,3,30,4,9
5,25,2,23,4,28,3,7,1,19,0,28
